@relation inference_emails

@attribute text string
@attribute @@class@@ {ham,spam}

@data
'Subject: your prescription is ready . . oxwq s f e\nlow cost prescription medications\nsoma , ultram , adipex , vicodin many more\nprescribed online and shipped\novernight to your door ! !\none of our us licensed physicians will write an\nfda approved prescription for you and ship your\norder overnight via a us licensed pharmacy direct\nto your doorstep . . . . fast and secure ! !\nclick here !\nno thanks , please take me off your list\nogrg z\nlqlokeolnq\nlnu',?
'Subject: vastar resources , inc .\ngary , production from the high island larger block a - 1 # 2 commenced on\nsaturday at 2 : 00 p . m . at about 6 , 500 gross . carlos expects between 9 , 500 and\n10 , 000 gross for tomorrow . vastar owns 68 \% of the gross production .\ngeorge x 3 - 6992\n- - - - - - - - - - - - - - - - - - - - - - forwarded by george weissman / hou / ect on 12 / 13 / 99 10 : 16\nam - - - - - - - - - - - - - - - - - - - - - - - - - - -\ndaren j farmer\n12 / 10 / 99 10 : 38 am\nto : carlos j rodriguez / hou / ect @ ect\ncc : george weissman / hou / ect @ ect , melissa graves / hou / ect @ ect\nsubject : vastar resources , inc .\ncarlos ,\nplease call linda and get everything set up .\ni \' m going to estimate 4 , 500 coming up tomorrow , with a 2 , 000 increase each\nfollowing day based on my conversations with bill fischer at bmar .\nd .\n- - - - - - - - - - - - - - - - - - - - - - forwarded by daren j farmer / hou / ect on 12 / 10 / 99 10 : 34\nam - - - - - - - - - - - - - - - - - - - - - - - - - - -\nenron north america corp .\nfrom : george weissman 12 / 10 / 99 10 : 00 am\nto : daren j farmer / hou / ect @ ect\ncc : gary bryan / hou / ect @ ect , melissa graves / hou / ect @ ect\nsubject : vastar resources , inc .\ndarren ,\nthe attached appears to be a nomination from vastar resources , inc . for the\nhigh island larger block a - 1 # 2 ( previously , erroneously referred to as the\n# 1 well ) . vastar now expects the well to commence production sometime\ntomorrow . i told linda harris that we \' d get her a telephone number in gas\ncontrol so she can provide notification of the turn - on tomorrow . linda \' s\nnumbers , for the record , are 281 . 584 . 3359 voice and 713 . 312 . 1689 fax .\nwould you please see that someone contacts linda and advises her how to\nsubmit future nominations via e - mail , fax or voice ? thanks .\ngeorge x 3 - 6992\n- - - - - - - - - - - - - - - - - - - - - - forwarded by george weissman / hou / ect on 12 / 10 / 99 09 : 44\nam - - - - - - - - - - - - - - - - - - - - - - - - - - -\n\" linda harris \" on 12 / 10 / 99 09 : 38 : 43 am\nto : george weissman / hou / ect @ ect\ncc :\nsubject : hi a - 1 # 2\neffective 12 - 11 - 99\n| - - - - - - - - + - - - - - - - - - - + - - - - - - - - - - - |\n| | | |\n| mscf / d | min ftp | time |\n| | | |\n| - - - - - - - - + - - - - - - - - - - + - - - - - - - - - - - |\n| | | |\n| 4 , 500 | 9 , 925 | 24 hours |\n| | | |\n| - - - - - - - - + - - - - - - - - - - + - - - - - - - - - - - |\n| | | |\n| 6 , 000 | 9 , 908 | 24 hours |\n| | | |\n| - - - - - - - - + - - - - - - - - - - + - - - - - - - - - - - |\n| | | |\n| 8 , 000 | 9 , 878 | 24 hours |\n| | | |\n| - - - - - - - - + - - - - - - - - - - + - - - - - - - - - - - |\n| | | |\n| 10 , 000 | 9 , 840 | 24 hours |\n| | | |\n| - - - - - - - - + - - - - - - - - - - + - - - - - - - - - - - |\n| | | |\n| 12 , 000 | 9 , 793 | 24 hours |\n| | | |\n| - - - - - - - - + - - - - - - - - - - + - - - - - - - - - - - |\n| | | |\n| 14 , 000 | 9 , 738 | 24 hours |\n| | | |\n| - - - - - - - - + - - - - - - - - - - + - - - - - - - - - - - |\n| | | |\n| 16 , 000 | 9 , 674 | 24 hours |\n| | | |\n| - - - - - - - - + - - - - - - - - - - + - - - - - - - - - - - |\n| | | |\n| 18 , 000 | 9 , 602 | 24 hours |\n| | | |\n| - - - - - - - - + - - - - - - - - - - + - - - - - - - - - - - |\n| | | |\n| 20 , 000 | 9 , 521 | 24 hours |\n| | | |\n| - - - - - - - - + - - - - - - - - - - + - - - - - - - - - - - |\n| | | |\n| 22 , 000 | 9 , 431 | 24 hours |\n| | | |\n| - - - - - - - - + - - - - - - - - - - + - - - - - - - - - - - |\n| | | |\n| 24 , 000 | 9 , 332 | 24 hours |\n| | | |\n| - - - - - - - - + - - - - - - - - - - + - - - - - - - - - - - |\n| | | |\n| 26 , 000 | 9 , 224 | 24 hours |\n| | | |\n| - - - - - - - - + - - - - - - - - - - + - - - - - - - - - - - |\n| | | |\n| 28 , 000 | 9 , 108 | 24 hours |\n| | | |\n| - - - - - - - - + - - - - - - - - - - + - - - - - - - - - - - |\n| | | |\n| 30 , 000 | 8 , 982 | 24 hours |\n| | | |\n| - - - - - - - - + - - - - - - - - - - + - - - - - - - - - - - |\n| | | |\n| 32 , 000 | 8 , 847 | 24 hours |\n| | | |\n| - - - - - - - - + - - - - - - - - - - + - - - - - - - - - - - |\n| | | |\n| 34 , 000 | 8 , 703 | 24 hours |\n| | | |\n| - - - - - - - - + - - - - - - - - - - + - - - - - - - - - - - |\n| | | |\n| 36 , 000 | 8 , 549 | 24 hours |\n| | | |\n| - - - - - - - - + - - - - - - - - - - + - - - - - - - - - - - |',?
'Subject: christmas tree farm pictures',?
'Subject: [ adv ] merry christmas - joyeux noel - frohe weihnachten - feliz navidad\nenglish\nfranais\ndeutsch\nkeep track of the real market value through 3 . 5\nmillion fine art auction records covering 306 , 000 artists from the 4 th c . to present\nand trace their works at auctions with\nartprice the world leader in art market information .\nmatrisez les vrais prix du march\navec nos 3 , 5 millions d \' adjudications couvrant 306000 artistes du 4 e sicle\nnos jours et tracez les uvres d \' art avec\nartprice , leader mondial de l \' information du march de l \' art .\ncheck your favorite artists\nand the true price of their artworks on artprice !\nunlimited access : usd 8 . 25 per month\nvous vous intressez un artiste ,\nvrifiez le vrai prix de ses uvressur artprice !\naccs illimit : 8 , 25\neur par mois\njoin our 900 , 000 customers !\nholiday season special offers\nchoose one of our unlimited\naccess subscriptions . . .\nrejoignez nos 900\n000 clients\noffres sp?ciales de fin d \' ann?e\nnos\nabonnements en acc?s illimit? . . .\nthe annual expert\nus $ 41 . 58\nper month\n( unlimited access )\nsave\nus $ / eur 500\nthe perfect gift\nfor serious art collectors and professionals at the special price of us $ / euro\n499 instead of us $ / eur 999 !\nholiday season offer only valid until january 15 , 2004 .\nother offers starting at us $ 8 . 25 per month\nannuel 100 \% internet\n16 , 58\neur\npar mois\n( accs illimit )\ncadeau !\navec un cadeau spcial\nfin d \' anne : un artprice annual 2003 gratuit ( valeur 129 euros )\npour vous ou offrir un collectionneur !\nvalable pour les ftes de fin d \' anne et seulement jusqu \' au 15\njanvier 2004 .\nautres offres\npartir de 8 , 25 euros par mois\nfree email alert :\nauction watch service on your listed artists !\nsign up for free\nartprice\ntour\nalerte email gratuite :\nsurveillance de vos artistes favoris\ninscription express gratuite\nsincerely\nthierry ehrmann\nthe artprice founder\nthe world leader in art market information\nleader mondial de l \' information sur le marche de l \' art\nwelt - leader in kunstmarkt - infos\n1987 - 2003\nthierryehrmann\nonline payments accepted\nmodes de paiement en ligne\nto remove your email : paliourg @ iit . demokritos . gr\nplease click below :\nin case the above link does not work you can go to\nhttp : / / list . artaddiction . com /\nor reply to this message as it is .\nplease allow us 72 h for your e - mail to be removed . thank you for your co - operation .\npour d?sinscrire votre email : paliourg @ iit . demokritos . gr\ncliquez ci - dessous : http : / / list . artaddiction . com / ? m = paliourg @ iit . demokritos . gr\nsi le lien ci - dessus ne fonctionne pas , vous pouvez aller sur :\nhttp : / / list . artaddiction . com /\nou r?pondez svp ? ce message sans en modifier le contenu .\nvotre d?sinscription sera effective dans les 72 h . merci de votre coop?ration .\nen conformit avec la loi\n78 - 17 du 6 / 1 / 78 ( cnil ) , vous pouvez demander ne plus figurer sur notre\nfichier de routage .\npure search s 52\nartprice . com - domaine de la source bp 69 - f - 69270 st romain au mont d \' or - rcs\n: 411 309 198\n',?
